Normalized Data/p02_9_normalized_split0.vrp
NAME:p02_9_NORMALIZED_split
BEST_KNOWN: 0
COMMENT: 0
DIMENSION: 284
CAPACITY: 100
EDGE_WEIGHT_FORMAT: FUNCTION
EDGE_WEIGHT_TYPE: EXACT_2D
NODE_COORD_SECTION
1 0.00000 0.00000
2 16 -38
3 16 -38
4 16 -38
5 -48 20
6 -48 20
7 -48 20
8 -48 20
9 46 45
10 46 45
11 46 45
12 7 20
13 7 20
14 24 6
15 24 6
16 24 6
17 -34 6
18 -34 6
19 -34 6
20 -34 6
21 -34 6
22 39 -36
23 39 -36
24 -36 -19
25 8 10
26 8 10
27 8 10
28 8 10
29 8 10
30 22 -24
31 22 -24
32 22 -24
33 22 -24
34 -18 33
35 -18 33
36 -18 33
37 -18 33
38 -14 -11
39 -14 -11
40 -14 -11
41 10 -36
42 10 -36
43 10 -36
44 -19 10
45 -19 10
46 -19 10
47 -19 10
48 -19 10
49 6 37
50 6 37
51 6 37
52 38 24
53 38 24
54 38 24
55 38 24
56 9 -22
57 9 -22
58 9 -22
59 9 -22
60 -49 48
61 -49 48
62 -49 48
63 -25 20
64 -25 20
65 -25 20
66 -25 20
67 -25 20
68 43 42
69 43 42
70 43 42
71 43 42
72 43 42
73 43 42
74 43 42
75 31 43
76 31 43
77 -45 -39
78 -45 -39
79 -45 -39
80 -45 -39
81 -15 38
82 -15 38
83 -15 38
84 -15 38
85 -30 -18
86 -30 -18
87 -44 -48
88 -44 -48
89 -44 -48
90 -44 -48
91 40 -21
92 40 -21
93 40 -21
94 9 -49
95 9 -49
96 9 -49
97 9 -49
98 37 -47
99 37 -47
100 37 -47
101 -21 -1
102 -21 -1
103 -22 -21
104 -22 -21
105 -22 -21
106 -22 -21
107 31 -18
108 31 -18
109 31 -18
110 31 -18
111 10 40
112 10 40
113 10 40
114 26 38
115 26 38
116 26 38
117 26 38
118 26 38
119 24 -38
120 24 -38
121 24 -38
122 24 -38
123 24 -38
124 -22 11
125 -22 11
126 -22 11
127 -22 11
128 -22 11
129 -41 -43
130 -41 -43
131 29 35
132 29 35
133 29 35
134 29 35
135 29 35
136 29 35
137 34 -15
138 34 -15
139 34 -15
140 34 -15
141 34 -15
142 -50 -50
143 -50 -50
144 7 -15
145 7 -15
146 7 -15
147 7 -15
148 14 -15
149 14 -15
150 14 -15
151 14 -15
152 -30 39
153 -30 39
154 -30 39
155 -30 39
156 -30 39
157 -1 -31
158 -1 -31
159 -1 -31
160 -31 -26
161 -31 -26
162 -31 -26
163 -31 -26
164 49 45
165 49 45
166 41 -27
167 41 -27
168 41 -27
169 41 -27
170 41 -27
171 41 -27
172 41 -27
173 -18 26
174 -18 26
175 -18 26
176 -18 26
177 -18 26
178 -18 26
179 -18 26
180 -48 49
181 -48 49
182 -48 49
183 -48 49
184 -43 4
185 -43 4
186 -43 4
187 -26 -36
188 -26 -36
189 -20 17
190 -20 17
191 -20 17
192 -20 17
193 -20 17
194 -20 17
195 46 20
196 46 20
197 46 20
198 37 4
199 37 4
200 37 4
201 48 -10
202 48 -10
203 48 -10
204 48 -10
205 -39 -45
206 -39 -45
207 -27 48
208 -27 48
209 -27 48
210 -27 48
211 -27 48
212 -31 -16
213 -31 -16
214 -14 22
215 -14 22
216 -14 22
217 -14 22
218 -14 22
219 -21 -23
220 -21 -23
221 -21 -23
222 -21 -23
223 8 44
224 8 44
225 8 44
226 8 44
227 8 44
228 32 40
229 32 40
230 10 -2
231 10 -2
232 10 -2
233 -43 10
234 -43 10
235 -43 10
236 -9 37
237 -9 37
238 37 21
239 37 21
240 37 21
241 37 21
242 37 21
243 37 21
244 10 -40
245 10 -40
246 10 -40
247 10 -40
248 10 -40
249 10 -40
250 12 18
251 12 18
252 44 -16
253 44 -16
254 44 -16
255 44 -16
256 -3 -38
257 -3 -38
258 -3 -38
259 -44 -3
260 -44 -3
261 -44 -3
262 -44 -3
263 15 -24
264 15 -24
265 15 -24
266 -23 18
267 -23 18
268 -23 18
269 -23 18
270 -23 18
271 -19 -16
272 -19 -16
273 -19 -16
274 -19 -16
275 -19 -16
276 41 -16
277 41 -16
278 41 -16
279 41 -16
280 -18 -36
281 -18 -36
282 -18 -36
283 -18 -36
284 -18 -36
DEMAND_SECTION
1 0
2 20
3 5
4 1
5 20
6 20
7 5
8 1
9 20
10 20
11 10
12 20
13 10
14 20
15 1
16 1
17 20
18 20
19 5
20 1
21 1
22 20
23 20
24 20
25 20
26 1
27 1
28 1
29 1
30 20
31 10
32 1
33 1
34 20
35 10
36 5
37 1
38 20
39 20
40 5
41 20
42 10
43 5
44 20
45 10
46 1
47 1
48 1
49 20
50 1
51 1
52 10
53 5
54 1
55 1
56 10
57 1
58 1
59 1
60 10
61 1
62 1
63 20
64 10
65 5
66 1
67 1
68 20
69 10
70 5
71 1
72 1
73 1
74 1
75 20
76 10
77 20
78 1
79 1
80 1
81 10
82 5
83 1
84 1
85 20
86 1
87 20
88 10
89 1
90 1
91 10
92 1
93 1
94 20
95 20
96 5
97 1
98 20
99 20
100 1
101 20
102 5
103 20
104 10
105 1
106 1
107 20
108 20
109 5
110 1
111 20
112 10
113 1
114 20
115 10
116 5
117 1
118 1
119 10
120 1
121 1
122 1
123 1
124 20
125 20
126 5
127 1
128 1
129 20
130 1
131 20
132 10
133 5
134 1
135 1
136 1
137 10
138 5
139 1
140 1
141 1
142 20
143 10
144 20
145 1
146 1
147 1
148 10
149 5
150 1
151 1
152 20
153 20
154 5
155 1
156 1
157 10
158 1
159 1
160 20
161 1
162 1
163 1
164 20
165 10
166 20
167 10
168 5
169 1
170 1
171 1
172 1
173 20
174 10
175 5
176 1
177 1
178 1
179 1
180 20
181 1
182 1
183 1
184 10
185 5
186 1
187 10
188 5
189 20
190 10
191 5
192 1
193 1
194 1
195 20
196 5
197 1
198 20
199 20
200 10
201 20
202 10
203 1
204 1
205 10
206 5
207 20
208 20
209 5
210 1
211 1
212 10
213 5
214 20
215 20
216 5
217 1
218 1
219 20
220 20
221 1
222 1
223 20
224 10
225 5
226 1
227 1
228 20
229 10
230 20
231 20
232 1
233 20
234 10
235 1
236 10
237 5
238 20
239 10
240 1
241 1
242 1
243 1
244 20
245 20
246 1
247 1
248 1
249 1
250 20
251 10
252 20
253 5
254 1
255 1
256 20
257 1
258 1
259 20
260 1
261 1
262 1
263 20
264 20
265 1
266 20
267 5
268 1
269 1
270 1
271 20
272 20
273 1
274 1
275 1
276 10
277 5
278 1
279 1
280 10
281 1
282 1
283 1
284 1
DEPOT_SECTION
1
-1
EOF