Normalized Data/p02_9_normalized_split0.sol
283 -4 5 7 6 234 232 233 16 20 19 -12 11 24 -14 13 15 195 196 194 51 54 53 52 239 237 240 241 238 242 -21 22 97 98 99 119 120 121 118 122 -26 27 25 28 135 132 133 227 228 74 75 69 67 73 -32 30 31 29 106 109 107 108 229 -36 34 33 35 153 154 152 155 151 82 81 83 80 -39 38 37 270 272 274 273 271 -41 40 42 247 248 246 245 243 3 1 2 56 58 55 57 144 146 -47 46 45 44 43 127 126 123 124 125 100 -48 49 50 222 225 224 223 226 110 111 112 -61 59 60 181 182 180 179 209 208 207 210 206 236 235 -72 70 71 68 9 10 8 163 164 -78 79 77 76 142 141 87 86 88 89 205 204 -101 17 18 185 183 184 259 258 261 260 23 211 -105 102 104 103 220 221 219 218 -134 130 131 116 114 117 113 115 250 249 -138 139 140 137 136 203 200 201 202 198 197 199 -143 145 264 263 262 148 147 150 149 230 231 -158 156 157 255 257 256 96 95 94 93 244 -167 169 171 165 166 168 170 91 90 92 253 252 251 254 277 278 275 276 -189 175 172 176 178 177 174 173 215 213 214 216 217 -192 188 190 191 193 62 65 63 64 66 269 267 266 265 268 -212 84 85 161 162 160 159 128 129 187 186 279 280 283 282 281 0 





OBJ=
2323.022
BEST_KNOWN=
0.000